<?xml version = "1.0" encoding="UTF-8" standalone="yes"?>
<CPLEXSolution version="1.2">
 <header
   problemName="inst_14_cut_n12"
   objectiveValue="62.332737030411472"
   solutionTypeValue="1"
   solutionTypeString="basic"
   solutionStatusValue="1"
   solutionStatusString="optimal"
   solutionMethodString="primal"
   primalFeasible="1"
   dualFeasible="1"
   simplexIterations="0"
   writeLevel="1"/>
 <quality
   epRHS="9.9999999999999995e-07"
   epOpt="9.9999999999999995e-07"
   maxPrimalInfeas="0"
   maxDualInfeas="0"
   maxPrimalResidual="2.3092638912203256e-14"
   maxDualResidual="3.9968028886505635e-15"
   maxX="1"
   maxPi="17.22361359570667"
   maxSlack="267.13953488372107"
   maxRedCost="2.3345259391771336"
   kappa="1698.4979681933401"/>
 <linearConstraints>
  <constraint name="c0" index="0" status="BS" slack="154.64937388193204" dual="-0"/>
  <constraint name="c1" index="1" status="BS" slack="91.76386404293379" dual="-0"/>
  <constraint name="c2" index="2" status="BS" slack="118.18962432915916" dual="-0"/>
  <constraint name="c3" index="3" status="BS" slack="267.13953488372107" dual="-0"/>
  <constraint name="c4" index="4" status="LL" slack="0" dual="0.030411449016100881"/>
  <constraint name="c5" index="5" status="BS" slack="176.34525939177095" dual="-0"/>
  <constraint name="c6" index="6" status="BS" slack="21.822898032200541" dual="-0"/>
  <constraint name="c7" index="7" status="BS" slack="238.41144901610019" dual="-0"/>
  <constraint name="c8" index="8" status="BS" slack="34.166368515205704" dual="-0"/>
  <constraint name="c9" index="9" status="BS" slack="230.33094812164572" dual="-0"/>
  <constraint name="c10" index="10" status="BS" slack="127.84794275491943" dual="-0"/>
  <constraint name="c11" index="11" status="BS" slack="256.37388193202156" dual="-0"/>
  <constraint name="c12" index="12" status="LL" slack="0" dual="-0"/>
  <constraint name="cut_1" index="13" status="BS" slack="1.8425760286225703" dual="-0"/>
  <constraint name="cut_2" index="14" status="BS" slack="0.88193202146694105" dual="-0"/>
  <constraint name="cut_3" index="15" status="BS" slack="0.43112701252238128" dual="-0"/>
  <constraint name="cut_4" index="16" status="BS" slack="0.92128801431129048" dual="-0"/>
  <constraint name="cut_5" index="17" status="LL" slack="0" dual="0.17531305903398153"/>
  <constraint name="cut_6" index="18" status="BS" slack="0.47048300536671966" dual="-0"/>
  <constraint name="cut_7" index="19" status="BS" slack="1.3917710196780195" dual="-0"/>
  <constraint name="cut_8" index="20" status="BS" slack="0.92128801431128338" dual="-0"/>
  <constraint name="cut_9" index="21" status="BS" slack="0.39177101967801065" dual="-0"/>
  <constraint name="cut_10" index="22" status="LL" slack="0" dual="17.22361359570667"/>
  <constraint name="cut_11" index="23" status="BS" slack="0.92128801431129759" dual="-0"/>
  <constraint name="cut_12" index="24" status="BS" slack="0.4114490161001676" dual="-0"/>
 </linearConstraints>
 <variables>
  <variable name="x0" index="0" status="BS" value="0.9016100178890879" reducedCost="0"/>
  <variable name="x1" index="1" status="BS" value="0.49016100178891064" reducedCost="0"/>
  <variable name="x2" index="2" status="UL" value="1" reducedCost="2.3345259391771336"/>
  <variable name="x3" index="3" status="BS" value="0.019677996422180044" reducedCost="0"/>
  <variable name="s0" index="4" status="LL" value="0" reducedCost="0"/>
  <variable name="s1" index="5" status="LL" value="0" reducedCost="0"/>
  <variable name="s2" index="6" status="LL" value="0" reducedCost="0"/>
  <variable name="s3" index="7" status="LL" value="0" reducedCost="0"/>
  <variable name="s4" index="8" status="LL" value="0" reducedCost="-0.030411449016100881"/>
  <variable name="s5" index="9" status="LL" value="0" reducedCost="0"/>
  <variable name="s6" index="10" status="LL" value="0" reducedCost="0"/>
  <variable name="s7" index="11" status="LL" value="0" reducedCost="0"/>
  <variable name="s8" index="12" status="LL" value="0" reducedCost="0"/>
  <variable name="s9" index="13" status="LL" value="0" reducedCost="0"/>
  <variable name="s10" index="14" status="LL" value="0" reducedCost="0"/>
  <variable name="s11" index="15" status="LL" value="0" reducedCost="0"/>
  <variable name="s12" index="16" status="BS" value="0.43112701252237962" reducedCost="0"/>
 </variables>
 <objectiveValues>
  <objective index="0" name="" value="62.332737030411472"/>
 </objectiveValues>
</CPLEXSolution>
